c " random instance " 
p edges 200 2150
e 1 10
e 1 12
e 1 13
e 1 17
e 1 19
e 1 21
e 1 31
e 1 47
e 1 57
e 1 66
e 1 78
e 1 105
e 1 121
e 1 126
e 1 132
e 1 135
e 1 147
e 1 158
e 1 168
e 1 170
e 1 182
e 1 199
e 2 15
e 2 21
e 2 22
e 2 26
e 2 34
e 2 48
e 2 58
e 2 67
e 2 71
e 2 72
e 2 76
e 2 78
e 2 100
e 2 102
e 2 106
e 2 108
e 2 119
e 2 122
e 2 133
e 2 142
e 2 145
e 2 152
e 2 155
e 2 159
e 2 177
e 2 178
e 2 196
e 2 198
e 3 12
e 3 13
e 3 21
e 3 25
e 3 31
e 3 34
e 3 35
e 3 56
e 3 63
e 3 67
e 3 80
e 3 83
e 3 102
e 3 131
e 3 136
e 3 137
e 3 143
e 3 160
e 3 169
e 3 184
e 3 195
e 3 199
e 4 19
e 4 24
e 4 26
e 4 33
e 4 36
e 4 48
e 4 79
e 4 94
e 4 95
e 4 113
e 4 150
e 4 152
e 4 154
e 4 172
e 4 178
e 4 184
e 4 191
e 4 199
e 5 8
e 5 17
e 5 20
e 5 27
e 5 47
e 5 73
e 5 76
e 5 77
e 5 84
e 5 91
e 5 95
e 5 121
e 5 131
e 5 135
e 5 139
e 5 161
e 5 169
e 5 187
e 6 20
e 6 44
e 6 61
e 6 74
e 6 102
e 6 104
e 6 116
e 6 117
e 6 119
e 6 126
e 6 133
e 6 143
e 6 147
e 6 163
e 6 169
e 6 172
e 6 184
e 6 186
e 7 9
e 7 22
e 7 24
e 7 30
e 7 37
e 7 41
e 7 50
e 7 72
e 7 78
e 7 92
e 7 104
e 7 125
e 7 132
e 7 142
e 7 145
e 7 163
e 7 167
e 7 168
e 7 170
e 7 171
e 7 178
e 7 186
e 7 187
e 7 188
e 7 190
e 7 192
e 7 198
e 8 27
e 8 29
e 8 40
e 8 70
e 8 76
e 8 77
e 8 79
e 8 82
e 8 85
e 8 102
e 8 104
e 8 113
e 8 130
e 8 147
e 8 163
e 8 189
e 8 190
e 8 193
e 8 196
e 9 15
e 9 21
e 9 40
e 9 47
e 9 65
e 9 89
e 9 102
e 9 104
e 9 118
e 9 134
e 9 135
e 9 145
e 9 153
e 9 184
e 9 192
e 10 11
e 10 41
e 10 46
e 10 50
e 10 51
e 10 54
e 10 59
e 10 62
e 10 64
e 10 65
e 10 77
e 10 94
e 10 95
e 10 102
e 10 108
e 10 116
e 10 118
e 10 163
e 10 175
e 10 181
e 10 189
e 10 198
e 11 14
e 11 28
e 11 48
e 11 54
e 11 66
e 11 90
e 11 91
e 11 102
e 11 107
e 11 108
e 11 121
e 11 128
e 11 134
e 11 140
e 11 151
e 11 154
e 11 158
e 11 162
e 11 184
e 11 189
e 11 190
e 12 14
e 12 16
e 12 17
e 12 24
e 12 28
e 12 52
e 12 76
e 12 80
e 12 88
e 12 90
e 12 98
e 12 120
e 12 125
e 12 130
e 12 137
e 12 157
e 12 168
e 12 172
e 12 183
e 12 197
e 13 17
e 13 22
e 13 25
e 13 28
e 13 31
e 13 36
e 13 48
e 13 50
e 13 53
e 13 67
e 13 74
e 13 87
e 13 91
e 13 115
e 13 125
e 13 129
e 13 135
e 13 138
e 13 143
e 13 144
e 13 145
e 13 171
e 13 178
e 13 183
e 13 186
e 13 191
e 13 196
e 14 15
e 14 17
e 14 24
e 14 43
e 14 51
e 14 62
e 14 69
e 14 75
e 14 116
e 14 117
e 14 119
e 14 133
e 14 143
e 14 152
e 14 166
e 14 173
e 15 24
e 15 26
e 15 33
e 15 35
e 15 84
e 15 100
e 15 108
e 15 118
e 15 119
e 15 122
e 15 127
e 15 136
e 15 138
e 15 146
e 15 156
e 15 164
e 15 168
e 15 174
e 15 177
e 15 178
e 15 181
e 15 183
e 15 200
e 16 18
e 16 24
e 16 66
e 16 86
e 16 91
e 16 104
e 16 108
e 16 128
e 16 137
e 16 144
e 16 164
e 16 168
e 16 171
e 16 177
e 16 178
e 16 200
e 17 31
e 17 79
e 17 84
e 17 92
e 17 99
e 17 105
e 17 117
e 17 142
e 17 163
e 17 187
e 17 194
e 17 197
e 18 19
e 18 28
e 18 44
e 18 58
e 18 69
e 18 109
e 18 112
e 18 119
e 18 127
e 18 129
e 18 132
e 18 137
e 18 138
e 18 139
e 18 163
e 18 169
e 18 188
e 18 191
e 18 197
e 19 26
e 19 51
e 19 59
e 19 61
e 19 69
e 19 81
e 19 83
e 19 88
e 19 92
e 19 109
e 19 154
e 19 168
e 19 176
e 19 178
e 19 186
e 20 26
e 20 29
e 20 44
e 20 50
e 20 52
e 20 54
e 20 57
e 20 69
e 20 71
e 20 74
e 20 89
e 20 102
e 20 108
e 20 114
e 20 116
e 20 120
e 20 121
e 20 132
e 20 143
e 20 149
e 20 155
e 20 158
e 20 165
e 20 171
e 20 190
e 20 198
e 20 200
e 21 35
e 21 43
e 21 62
e 21 67
e 21 69
e 21 75
e 21 85
e 21 96
e 21 116
e 21 123
e 21 127
e 21 135
e 21 156
e 21 159
e 21 168
e 21 171
e 21 182
e 21 183
e 21 192
e 22 33
e 22 45
e 22 53
e 22 60
e 22 69
e 22 111
e 22 150
e 22 171
e 22 176
e 22 181
e 22 195
e 22 197
e 22 200
e 23 28
e 23 34
e 23 42
e 23 51
e 23 56
e 23 63
e 23 78
e 23 84
e 23 91
e 23 104
e 23 106
e 23 111
e 23 118
e 23 123
e 23 133
e 23 137
e 23 148
e 23 154
e 23 161
e 23 181
e 23 183
e 23 200
e 24 46
e 24 47
e 24 68
e 24 78
e 24 92
e 24 107
e 24 112
e 24 123
e 24 149
e 24 151
e 24 152
e 24 180
e 25 31
e 25 39
e 25 40
e 25 49
e 25 79
e 25 82
e 25 83
e 25 105
e 25 113
e 25 118
e 25 124
e 25 127
e 25 130
e 25 136
e 25 155
e 25 163
e 25 169
e 25 181
e 25 182
e 25 199
e 26 27
e 26 34
e 26 52
e 26 67
e 26 69
e 26 75
e 26 76
e 26 109
e 26 126
e 26 142
e 26 149
e 26 152
e 26 157
e 26 175
e 26 180
e 26 186
e 27 29
e 27 40
e 27 41
e 27 43
e 27 54
e 27 55
e 27 57
e 27 64
e 27 71
e 27 74
e 27 78
e 27 86
e 27 90
e 27 98
e 27 100
e 27 109
e 27 130
e 27 152
e 27 178
e 27 197
e 27 199
e 28 31
e 28 37
e 28 45
e 28 58
e 28 63
e 28 68
e 28 72
e 28 90
e 28 93
e 28 102
e 28 106
e 28 117
e 28 122
e 28 131
e 28 138
e 28 139
e 28 155
e 28 160
e 28 162
e 28 163
e 28 171
e 28 177
e 28 179
e 28 186
e 28 191
e 28 194
e 28 198
e 29 32
e 29 33
e 29 50
e 29 53
e 29 60
e 29 69
e 29 85
e 29 96
e 29 127
e 29 132
e 29 146
e 29 155
e 29 162
e 29 170
e 29 182
e 29 183
e 29 185
e 29 186
e 29 189
e 29 194
e 30 31
e 30 43
e 30 44
e 30 54
e 30 67
e 30 69
e 30 72
e 30 87
e 30 89
e 30 97
e 30 99
e 30 105
e 30 113
e 30 115
e 30 118
e 30 149
e 30 159
e 30 160
e 30 165
e 30 166
e 30 170
e 30 174
e 30 191
e 30 195
e 31 61
e 31 67
e 31 81
e 31 95
e 31 98
e 31 105
e 31 119
e 31 124
e 31 126
e 31 128
e 31 163
e 31 165
e 31 177
e 31 178
e 31 179
e 31 180
e 31 196
e 31 197
e 32 75
e 32 96
e 32 111
e 32 155
e 32 161
e 32 173
e 32 177
e 33 42
e 33 49
e 33 50
e 33 51
e 33 55
e 33 56
e 33 57
e 33 61
e 33 67
e 33 68
e 33 71
e 33 94
e 33 117
e 33 132
e 33 158
e 33 164
e 33 177
e 33 181
e 33 198
e 34 48
e 34 51
e 34 61
e 34 69
e 34 73
e 34 74
e 34 92
e 34 112
e 34 113
e 34 116
e 34 126
e 34 151
e 34 180
e 34 195
e 35 69
e 35 74
e 35 77
e 35 82
e 35 94
e 35 98
e 35 134
e 35 141
e 35 143
e 35 147
e 35 157
e 35 166
e 35 167
e 35 189
e 36 37
e 36 42
e 36 54
e 36 61
e 36 118
e 36 122
e 36 124
e 36 128
e 36 129
e 36 135
e 36 141
e 36 154
e 36 195
e 36 196
e 37 39
e 37 52
e 37 55
e 37 88
e 37 92
e 37 94
e 37 95
e 37 96
e 37 102
e 37 107
e 37 131
e 37 132
e 37 135
e 37 151
e 37 156
e 37 157
e 37 166
e 37 173
e 37 181
e 38 40
e 38 45
e 38 47
e 38 63
e 38 74
e 38 85
e 38 94
e 38 96
e 38 105
e 38 133
e 38 134
e 38 137
e 38 152
e 38 154
e 38 155
e 38 158
e 38 174
e 38 185
e 39 43
e 39 45
e 39 50
e 39 60
e 39 82
e 39 100
e 39 107
e 39 110
e 39 112
e 39 117
e 39 127
e 39 128
e 39 129
e 39 137
e 39 142
e 39 147
e 39 167
e 39 188
e 39 200
e 40 43
e 40 55
e 40 65
e 40 84
e 40 86
e 40 89
e 40 100
e 40 110
e 40 120
e 40 129
e 40 155
e 40 166
e 40 173
e 40 176
e 41 44
e 41 58
e 41 60
e 41 61
e 41 62
e 41 64
e 41 71
e 41 75
e 41 90
e 41 99
e 41 103
e 41 104
e 41 105
e 41 106
e 41 107
e 41 118
e 41 119
e 41 123
e 41 124
e 41 128
e 41 136
e 41 137
e 41 153
e 41 171
e 41 177
e 41 187
e 41 188
e 42 53
e 42 67
e 42 75
e 42 83
e 42 96
e 42 103
e 42 106
e 42 107
e 42 126
e 42 140
e 42 155
e 42 167
e 42 168
e 42 174
e 42 182
e 42 183
e 42 187
e 42 189
e 42 200
e 43 55
e 43 56
e 43 81
e 43 89
e 43 94
e 43 95
e 43 97
e 43 120
e 43 126
e 43 127
e 43 129
e 43 149
e 43 172
e 43 173
e 43 185
e 43 188
e 44 49
e 44 50
e 44 54
e 44 61
e 44 65
e 44 74
e 44 89
e 44 97
e 44 104
e 44 122
e 44 145
e 44 146
e 44 162
e 44 167
e 44 172
e 44 173
e 44 199
e 45 68
e 45 90
e 45 100
e 45 102
e 45 106
e 45 111
e 45 117
e 45 129
e 45 130
e 45 156
e 45 157
e 45 175
e 45 200
e 46 48
e 46 52
e 46 56
e 46 58
e 46 71
e 46 82
e 46 88
e 46 124
e 46 134
e 46 144
e 46 161
e 46 165
e 46 175
e 46 177
e 46 187
e 46 190
e 47 67
e 47 74
e 47 94
e 47 102
e 47 106
e 47 140
e 47 155
e 47 158
e 47 161
e 47 166
e 47 169
e 47 170
e 47 175
e 47 179
e 47 182
e 48 60
e 48 62
e 48 78
e 48 86
e 48 91
e 48 93
e 48 101
e 48 130
e 48 168
e 48 176
e 48 193
e 49 60
e 49 61
e 49 70
e 49 80
e 49 103
e 49 109
e 49 111
e 49 121
e 49 129
e 49 140
e 49 153
e 49 156
e 49 185
e 49 187
e 49 190
e 50 57
e 50 60
e 50 63
e 50 97
e 50 105
e 50 129
e 50 139
e 50 146
e 50 147
e 50 148
e 50 156
e 50 161
e 50 164
e 50 171
e 50 199
e 51 55
e 51 59
e 51 72
e 51 85
e 51 92
e 51 107
e 51 109
e 51 119
e 51 147
e 51 149
e 51 162
e 51 167
e 51 173
e 51 177
e 51 184
e 51 189
e 52 53
e 52 61
e 52 69
e 52 73
e 52 111
e 52 118
e 52 130
e 52 143
e 52 149
e 52 161
e 52 186
e 52 189
e 52 193
e 52 196
e 52 199
e 53 55
e 53 61
e 53 67
e 53 69
e 53 74
e 53 92
e 53 107
e 53 111
e 53 113
e 53 131
e 53 140
e 53 144
e 53 148
e 53 159
e 53 160
e 53 165
e 53 179
e 53 198
e 54 68
e 54 69
e 54 83
e 54 89
e 54 95
e 54 99
e 54 104
e 54 109
e 54 120
e 54 135
e 54 136
e 54 157
e 54 182
e 54 191
e 54 200
e 55 56
e 55 62
e 55 67
e 55 77
e 55 83
e 55 84
e 55 89
e 55 90
e 55 98
e 55 102
e 55 123
e 55 132
e 55 165
e 55 175
e 55 193
e 56 59
e 56 118
e 56 121
e 56 130
e 56 135
e 56 153
e 56 160
e 56 166
e 56 195
e 56 197
e 57 67
e 57 75
e 57 85
e 57 88
e 57 89
e 57 105
e 57 109
e 57 113
e 57 118
e 57 121
e 57 126
e 57 136
e 57 138
e 57 189
e 57 191
e 57 200
e 58 70
e 58 80
e 58 84
e 58 85
e 58 89
e 58 93
e 58 110
e 58 113
e 58 114
e 58 135
e 58 148
e 58 153
e 58 162
e 58 179
e 58 180
e 59 63
e 59 66
e 59 68
e 59 88
e 59 100
e 59 109
e 59 112
e 59 121
e 59 132
e 59 140
e 59 145
e 59 147
e 59 157
e 59 193
e 60 66
e 60 68
e 60 71
e 60 93
e 60 99
e 60 106
e 60 107
e 60 110
e 60 117
e 60 122
e 60 131
e 60 132
e 60 133
e 60 146
e 60 153
e 60 157
e 60 161
e 60 172
e 60 175
e 60 181
e 60 183
e 60 186
e 60 196
e 60 198
e 61 68
e 61 71
e 61 85
e 61 93
e 61 95
e 61 98
e 61 116
e 61 118
e 61 124
e 61 127
e 61 135
e 61 137
e 61 158
e 61 159
e 61 164
e 61 170
e 61 177
e 61 192
e 62 74
e 62 78
e 62 100
e 62 109
e 62 133
e 62 135
e 62 136
e 62 139
e 62 145
e 62 146
e 62 147
e 62 148
e 62 153
e 62 164
e 62 168
e 62 175
e 62 180
e 62 186
e 62 198
e 63 78
e 63 84
e 63 89
e 63 96
e 63 115
e 63 117
e 63 124
e 63 128
e 63 131
e 63 133
e 63 141
e 63 142
e 63 145
e 63 147
e 63 161
e 63 179
e 63 186
e 63 190
e 63 195
e 63 196
e 64 71
e 64 80
e 64 82
e 64 102
e 64 118
e 64 137
e 64 150
e 64 151
e 64 165
e 64 179
e 64 180
e 65 70
e 65 86
e 65 94
e 65 98
e 65 104
e 65 107
e 65 108
e 65 114
e 65 125
e 65 133
e 65 138
e 65 157
e 65 165
e 65 171
e 65 172
e 65 174
e 65 175
e 65 182
e 65 184
e 65 191
e 66 74
e 66 75
e 66 82
e 66 96
e 66 105
e 66 109
e 66 121
e 66 145
e 66 161
e 66 163
e 66 170
e 66 174
e 66 182
e 66 189
e 67 77
e 67 91
e 67 97
e 67 102
e 67 108
e 67 112
e 67 113
e 67 117
e 67 123
e 67 131
e 67 156
e 67 157
e 67 162
e 67 163
e 68 81
e 68 96
e 68 115
e 68 120
e 68 125
e 68 126
e 68 129
e 68 135
e 68 139
e 68 144
e 68 156
e 68 158
e 68 165
e 68 167
e 68 172
e 68 178
e 68 183
e 68 189
e 68 198
e 69 99
e 69 126
e 69 128
e 69 135
e 69 148
e 69 155
e 69 163
e 69 166
e 69 169
e 69 171
e 69 173
e 69 176
e 69 183
e 70 71
e 70 78
e 70 87
e 70 103
e 70 118
e 70 120
e 70 141
e 70 150
e 70 159
e 70 176
e 70 191
e 71 87
e 71 91
e 71 101
e 71 115
e 71 127
e 71 151
e 71 165
e 71 170
e 71 177
e 71 187
e 72 76
e 72 94
e 72 100
e 72 130
e 72 169
e 72 172
e 72 188
e 72 195
e 73 80
e 73 92
e 73 97
e 73 100
e 73 108
e 73 112
e 73 127
e 73 136
e 73 140
e 73 143
e 73 146
e 73 154
e 73 160
e 73 166
e 73 168
e 73 173
e 73 183
e 73 192
e 73 197
e 74 76
e 74 84
e 74 86
e 74 87
e 74 95
e 74 100
e 74 102
e 74 111
e 74 136
e 74 137
e 74 149
e 74 155
e 74 162
e 74 167
e 74 172
e 74 174
e 74 179
e 75 84
e 75 88
e 75 89
e 75 98
e 75 115
e 75 121
e 75 126
e 75 130
e 75 136
e 75 137
e 75 142
e 75 149
e 75 152
e 75 170
e 75 187
e 75 196
e 76 87
e 76 94
e 76 108
e 76 117
e 76 121
e 76 132
e 76 157
e 76 158
e 76 183
e 76 185
e 76 195
e 77 96
e 77 98
e 77 103
e 77 109
e 77 112
e 77 115
e 77 118
e 77 129
e 77 130
e 77 132
e 77 138
e 77 171
e 77 176
e 77 188
e 77 189
e 77 200
e 78 84
e 78 94
e 78 95
e 78 96
e 78 100
e 78 113
e 78 150
e 78 152
e 78 188
e 78 189
e 79 83
e 79 90
e 79 92
e 79 93
e 79 94
e 79 116
e 79 123
e 79 137
e 79 146
e 79 157
e 79 174
e 79 184
e 80 85
e 80 86
e 80 89
e 80 108
e 80 116
e 80 121
e 80 130
e 80 150
e 80 151
e 80 160
e 80 168
e 80 185
e 80 196
e 81 102
e 81 106
e 81 111
e 81 115
e 81 117
e 81 123
e 81 145
e 81 164
e 81 178
e 81 186
e 81 193
e 82 86
e 82 90
e 82 97
e 82 105
e 82 107
e 82 109
e 82 111
e 82 113
e 82 119
e 82 123
e 82 138
e 82 157
e 82 185
e 82 196
e 82 199
e 83 91
e 83 124
e 83 128
e 83 139
e 83 142
e 83 150
e 83 170
e 83 177
e 83 179
e 83 189
e 83 190
e 83 197
e 84 92
e 84 109
e 84 123
e 84 142
e 84 146
e 84 150
e 84 152
e 84 157
e 84 171
e 84 184
e 84 199
e 85 110
e 85 121
e 85 135
e 85 169
e 85 171
e 85 196
e 86 93
e 86 96
e 86 133
e 86 149
e 86 153
e 86 189
e 86 190
e 86 193
e 86 199
e 87 91
e 87 96
e 87 99
e 87 104
e 87 114
e 87 118
e 87 141
e 87 144
e 87 145
e 87 155
e 87 171
e 87 172
e 87 197
e 88 93
e 88 100
e 88 108
e 88 158
e 88 162
e 88 179
e 88 188
e 88 193
e 88 196
e 89 90
e 89 99
e 89 114
e 89 120
e 89 123
e 89 132
e 89 133
e 89 145
e 89 154
e 89 159
e 89 171
e 89 192
e 90 96
e 90 112
e 90 120
e 90 124
e 90 125
e 90 128
e 90 129
e 90 140
e 90 145
e 90 161
e 90 168
e 90 195
e 91 94
e 91 98
e 91 101
e 91 112
e 91 136
e 91 141
e 91 159
e 91 160
e 91 163
e 91 165
e 91 166
e 91 178
e 91 194
e 92 100
e 92 101
e 92 103
e 92 108
e 92 136
e 92 140
e 92 145
e 92 158
e 92 163
e 92 166
e 92 175
e 92 180
e 92 181
e 92 189
e 92 194
e 92 195
e 93 94
e 93 95
e 93 116
e 93 142
e 93 150
e 93 158
e 93 169
e 93 190
e 93 196
e 94 113
e 94 116
e 94 125
e 94 137
e 94 148
e 94 149
e 94 153
e 94 159
e 94 162
e 94 175
e 94 176
e 94 186
e 95 105
e 95 114
e 95 119
e 95 120
e 95 131
e 95 139
e 95 147
e 95 156
e 95 172
e 95 178
e 95 197
e 96 116
e 96 131
e 96 134
e 96 146
e 96 150
e 96 151
e 96 154
e 96 194
e 97 102
e 97 103
e 97 112
e 97 114
e 97 116
e 97 117
e 97 127
e 97 130
e 97 134
e 97 137
e 97 156
e 97 157
e 97 158
e 97 165
e 97 178
e 97 188
e 97 192
e 97 195
e 98 104
e 98 108
e 98 125
e 98 157
e 98 175
e 98 185
e 98 189
e 99 100
e 99 111
e 99 114
e 99 116
e 99 120
e 99 126
e 99 130
e 99 134
e 99 135
e 99 141
e 99 143
e 99 151
e 99 161
e 99 165
e 99 172
e 99 181
e 99 182
e 99 195
e 100 106
e 100 108
e 100 111
e 100 116
e 100 134
e 100 138
e 100 139
e 100 150
e 100 152
e 100 156
e 100 193
e 101 102
e 101 106
e 101 108
e 101 123
e 101 124
e 101 152
e 101 165
e 101 166
e 101 168
e 101 169
e 101 173
e 101 174
e 101 194
e 102 105
e 102 108
e 102 110
e 102 114
e 102 115
e 102 120
e 102 135
e 102 138
e 102 142
e 102 145
e 102 160
e 102 171
e 102 179
e 102 185
e 102 186
e 102 192
e 102 197
e 102 200
e 103 105
e 103 117
e 103 118
e 103 122
e 103 154
e 103 155
e 103 156
e 103 163
e 103 174
e 103 177
e 103 192
e 103 193
e 103 198
e 104 108
e 104 114
e 104 139
e 104 150
e 104 158
e 104 159
e 104 161
e 104 169
e 104 170
e 104 174
e 104 175
e 104 183
e 104 190
e 105 108
e 105 110
e 105 138
e 105 149
e 105 169
e 105 171
e 105 182
e 105 189
e 106 111
e 106 128
e 106 134
e 106 143
e 106 150
e 106 152
e 106 162
e 106 173
e 106 174
e 106 182
e 106 183
e 106 192
e 106 200
e 107 120
e 107 123
e 107 130
e 107 132
e 107 159
e 107 179
e 107 186
e 108 112
e 108 118
e 108 125
e 108 131
e 108 132
e 108 145
e 108 147
e 108 149
e 108 150
e 108 176
e 108 178
e 108 181
e 108 188
e 109 128
e 109 130
e 109 143
e 109 188
e 109 193
e 109 194
e 109 199
e 110 112
e 110 123
e 110 127
e 110 138
e 110 139
e 110 146
e 110 195
e 110 198
e 110 199
e 111 114
e 111 132
e 111 145
e 111 151
e 111 154
e 111 163
e 112 152
e 112 154
e 112 162
e 112 179
e 112 181
e 112 185
e 112 189
e 112 190
e 112 197
e 112 199
e 113 122
e 113 128
e 113 148
e 113 158
e 113 163
e 113 177
e 113 193
e 114 115
e 114 120
e 114 129
e 114 139
e 114 146
e 114 153
e 114 155
e 114 179
e 115 119
e 115 129
e 115 141
e 115 155
e 115 159
e 115 160
e 115 171
e 115 172
e 115 176
e 115 179
e 115 195
e 115 198
e 116 121
e 116 123
e 116 145
e 116 147
e 116 150
e 116 156
e 116 159
e 116 163
e 116 170
e 116 174
e 116 177
e 116 179
e 116 181
e 116 184
e 116 185
e 116 196
e 116 197
e 117 121
e 117 123
e 117 140
e 117 143
e 117 148
e 117 152
e 117 159
e 117 200
e 118 125
e 118 146
e 118 164
e 118 171
e 118 178
e 118 199
e 119 129
e 119 132
e 119 139
e 119 156
e 119 160
e 119 193
e 119 195
e 119 198
e 120 141
e 120 158
e 120 159
e 120 161
e 120 182
e 120 193
e 120 198
e 120 199
e 121 124
e 121 127
e 121 146
e 121 152
e 121 161
e 121 170
e 121 175
e 121 191
e 121 195
e 121 197
e 121 198
e 122 127
e 122 128
e 122 129
e 122 135
e 122 136
e 122 137
e 122 146
e 122 150
e 122 152
e 122 166
e 122 197
e 123 126
e 123 130
e 123 141
e 123 143
e 123 150
e 123 160
e 123 195
e 124 125
e 124 130
e 124 155
e 124 168
e 124 172
e 124 177
e 124 188
e 124 190
e 124 198
e 125 126
e 125 134
e 125 144
e 125 148
e 125 152
e 125 181
e 125 193
e 126 134
e 126 142
e 126 147
e 126 163
e 126 167
e 127 129
e 127 138
e 127 158
e 127 170
e 127 174
e 127 184
e 127 187
e 127 199
e 128 141
e 128 145
e 128 146
e 128 147
e 128 151
e 128 153
e 128 157
e 128 159
e 128 163
e 128 168
e 128 170
e 128 174
e 128 188
e 128 193
e 129 146
e 129 162
e 129 165
e 129 175
e 129 177
e 129 187
e 129 200
e 130 140
e 130 153
e 130 182
e 130 186
e 130 190
e 130 192
e 130 196
e 131 135
e 131 141
e 131 154
e 131 157
e 131 162
e 131 175
e 131 180
e 131 187
e 131 189
e 131 197
e 132 144
e 132 148
e 132 156
e 132 161
e 132 171
e 132 177
e 132 188
e 132 200
e 133 160
e 133 163
e 133 179
e 133 187
e 133 189
e 133 194
e 134 136
e 134 143
e 134 146
e 134 147
e 134 148
e 134 151
e 134 179
e 134 181
e 134 182
e 134 193
e 134 198
e 134 199
e 135 161
e 135 162
e 135 164
e 135 188
e 135 190
e 135 197
e 135 198
e 136 154
e 136 162
e 136 177
e 136 180
e 136 181
e 136 198
e 137 143
e 137 153
e 137 161
e 137 165
e 137 175
e 137 180
e 137 192
e 138 140
e 138 149
e 138 170
e 138 171
e 138 175
e 138 176
e 138 178
e 138 184
e 139 140
e 139 143
e 139 147
e 139 159
e 139 165
e 139 179
e 139 194
e 139 199
e 140 157
e 140 159
e 140 160
e 140 161
e 140 170
e 140 174
e 140 199
e 141 154
e 141 163
e 141 171
e 141 172
e 141 186
e 141 198
e 142 143
e 142 147
e 142 160
e 142 164
e 142 173
e 142 177
e 142 181
e 142 185
e 142 189
e 143 197
e 144 156
e 144 158
e 144 163
e 144 169
e 145 146
e 145 149
e 145 151
e 145 160
e 145 161
e 145 173
e 145 180
e 145 181
e 145 194
e 146 147
e 146 173
e 147 154
e 147 157
e 147 159
e 147 161
e 147 162
e 147 182
e 147 183
e 147 192
e 148 150
e 148 168
e 148 171
e 148 172
e 148 183
e 148 187
e 148 190
e 148 195
e 149 151
e 149 154
e 149 185
e 149 198
e 150 151
e 150 153
e 150 155
e 150 167
e 150 169
e 150 184
e 150 193
e 150 195
e 150 196
e 151 155
e 151 171
e 151 185
e 151 188
e 151 189
e 151 191
e 152 160
e 152 163
e 152 189
e 152 199
e 153 154
e 153 163
e 153 171
e 153 173
e 153 191
e 153 192
e 154 163
e 154 175
e 154 188
e 154 194
e 155 162
e 155 165
e 155 169
e 155 181
e 155 185
e 155 196
e 155 199
e 156 167
e 156 185
e 157 161
e 157 183
e 157 194
e 158 176
e 158 181
e 158 186
e 158 195
e 158 199
e 159 164
e 159 165
e 159 174
e 159 188
e 159 189
e 160 189
e 160 192
e 160 197
e 161 163
e 161 192
e 161 199
e 162 163
e 162 165
e 162 170
e 162 180
e 162 191
e 162 197
e 163 167
e 163 179
e 163 180
e 163 182
e 163 187
e 163 189
e 164 166
e 164 177
e 164 181
e 165 181
e 165 183
e 165 184
e 165 188
e 166 177
e 166 187
e 167 181
e 167 183
e 168 177
e 169 187
e 169 193
e 170 174
e 170 194
e 170 195
e 171 189
e 171 198
e 172 177
e 172 180
e 172 189
e 172 192
e 172 200
e 173 191
e 173 194
e 173 199
e 174 176
e 174 186
e 174 188
e 174 191
e 175 186
e 175 192
e 176 184
e 176 199
e 176 200
e 177 187
e 177 190
e 177 192
e 179 195
e 180 185
e 181 194
e 181 196
e 181 200
e 182 183
e 182 186
e 182 195
e 183 191
e 184 188
e 184 193
e 185 187
e 187 190
e 187 193
e 188 197
e 193 196
e 193 198
e 195 196
e 195 199
e 195 200
e 196 197
